
Gurobi 10.0.1 (linux64) logging started Sun Nov 26 17:26:01 2023

Set parameter LogFile to value "ArtificialInstance/ExperimentV2/S4T4K3/BaSp/gurobi91.txt"
Gurobi Optimizer version 10.0.1 build v10.0.1rc0 (linux64)

CPU model: AMD EPYC 7H12 64-Core Processor, instruction set [SSE2|AVX|AVX2]
Thread count: 128 physical cores, 128 logical processors, using up to 32 threads

Academic license 656792 - for non-commercial use only - registered to b.___@student.vu.nl
Optimize a model with 5045 rows, 7600 columns and 25840 nonzeros
Model fingerprint: 0x18f3fd1f
Variable types: 0 continuous, 7600 integer (7600 binary)
Coefficient statistics:
  Matrix range     [1e+00, 1e+00]
  Objective range  [9e-01, 2e+01]
  Bounds range     [1e+00, 1e+00]
  RHS range        [1e+00, 1e+00]
Presolve time: 0.03s
Presolved: 5045 rows, 7600 columns, 25840 nonzeros
Variable types: 0 continuous, 7600 integer (7600 binary)
Found heuristic solution: objective 641.0328958
Found heuristic solution: objective 268.3982423

Root relaxation: objective 5.342972e+01, 5510 iterations, 0.16 seconds (0.10 work units)

    Nodes    |    Current Node    |     Objective Bounds      |     Work
 Expl Unexpl |  Obj  Depth IntInf | Incumbent    BestBd   Gap | It/Node Time

     0     0   53.42972    0 1102  268.39824   53.42972  80.1%     -    0s
H    0     0                     102.8543064   53.42972  48.1%     -    0s
     0     0   57.77442    0 1476  102.85431   57.77442  43.8%     -    0s
H    0     0                      96.1286826   57.77442  39.9%     -    0s
     0     0   62.70824    0 1447   96.12868   62.70824  34.8%     -    1s
     0     0   62.70824    0 1453   96.12868   62.70824  34.8%     -    1s
H    0     0                      91.1744080   62.70824  31.2%     -    1s
     0     0   65.04293    0 1650   91.17441   65.04293  28.7%     -    1s
H    0     0                      90.4102354   65.14292  27.9%     -    1s
     0     0   65.14292    0 1662   90.41024   65.14292  27.9%     -    1s
     0     0   65.14292    0 1672   90.41024   65.14292  27.9%     -    1s
H    0     0                      88.5581829   65.14292  26.4%     -    2s
     0     0   66.44266    0 1768   88.55818   66.44266  25.0%     -    2s
     0     0   66.55814    0 1682   88.55818   66.55814  24.8%     -    2s
     0     0   66.56519    0 1679   88.55818   66.56519  24.8%     -    2s
     0     0   66.56519    0 1719   88.55818   66.56519  24.8%     -    2s
H    0     0                      86.4432480   67.40209  22.0%     -    3s
     0     0   67.40209    0 1627   86.44325   67.40209  22.0%     -    3s
H    0     0                      86.0538831   67.40209  21.7%     -    3s
     0     0   67.76638    0 1668   86.05388   67.76638  21.3%     -    3s
     0     0   67.76925    0 1646   86.05388   67.76925  21.2%     -    3s
     0     0   68.28635    0 1704   86.05388   68.28635  20.6%     -    3s
     0     0   68.30989    0 1763   86.05388   68.30989  20.6%     -    3s
     0     0   68.31548    0 1747   86.05388   68.31548  20.6%     -    3s
H    0     0                      82.4214418   68.85981  16.5%     -    4s
     0     0   68.85981    0 1747   82.42144   68.85981  16.5%     -    4s
     0     0   68.91038    0 1716   82.42144   68.91038  16.4%     -    4s
     0     0   68.91038    0 1688   82.42144   68.91038  16.4%     -    4s
     0     0   68.94303    0 1698   82.42144   68.94303  16.4%     -    4s
     0     0   68.94785    0 1617   82.42144   68.94785  16.3%     -    4s
     0     0   69.08586    0 1760   82.42144   69.08586  16.2%     -    5s
     0     0   69.10001    0 1735   82.42144   69.10001  16.2%     -    5s
     0     0   69.10659    0 1734   82.42144   69.10659  16.2%     -    5s
     0     0   69.10737    0 1744   82.42144   69.10737  16.2%     -    5s
     0     0   69.22917    0 1791   82.42144   69.22917  16.0%     -    5s
     0     0   69.24617    0 1806   82.42144   69.24617  16.0%     -    5s
     0     0   69.24617    0 1804   82.42144   69.24617  16.0%     -    5s
     0     0   69.31533    0 1684   82.42144   69.31533  15.9%     -    5s
     0     0   69.33799    0 1786   82.42144   69.33799  15.9%     -    5s
     0     0   69.34152    0 1783   82.42144   69.34152  15.9%     -    5s
     0     0   69.35059    0 1778   82.42144   69.35059  15.9%     -    6s
     0     0   69.35059    0 1698   82.42144   69.35059  15.9%     -    6s
H    0     0                      82.4078586   69.35059  15.8%     -    8s
     0     2   69.35059    0 1548   82.40786   69.35059  15.8%     -    8s
    15    30   70.65323    4 1259   82.40786   70.54228  14.4%  1791   10s
H  191   145                      78.9096056   70.86807  10.2%   790   11s
H  667    23                      78.7274989   71.82610  8.77%   431   14s
   802     4   78.50608   11  748   78.72750   75.64014  3.92%   402   15s

Cutting planes:
  Gomory: 11
  Zero half: 453
  RLT: 236

Explored 827 nodes (366761 simplex iterations) in 15.10 seconds (14.80 work units)
Thread count was 32 (of 128 available processors)

Solution count 10: 78.7275 78.9096 82.4079 ... 96.1287

Optimal solution found (tolerance 1.00e-04)
Best objective 7.872749892995e+01, best bound 7.872749892995e+01, gap 0.0000%
